(set-logic QF_SLIA)
(set-option :produce-models true)
(declare-const X String)
; ^\d{4,4}[A-Z0-9](, *\d{4,4})[A-Z0-9]*$
(assert (not (str.in_re X (re.++ ((_ re.loop 4 4) (re.range "0" "9")) (re.union (re.range "A" "Z") (re.range "0" "9")) (re.* (re.union (re.range "A" "Z") (re.range "0" "9"))) (str.to_re "\u{0a},") (re.* (str.to_re " ")) ((_ re.loop 4 4) (re.range "0" "9"))))))
; ^(([0]{0,1})([1-9]{1})([0-9]{2})){1}([\ ]{0,1})((([0-9]{3})([\ ]{0,1})([0-9]{3}))|(([0-9]{2})([\ ]{0,1})([0-9]{2})([\ ]{0,1})([0-9]{2})))$
(assert (str.in_re X (re.++ ((_ re.loop 1 1) (re.++ (re.opt (str.to_re "0")) ((_ re.loop 1 1) (re.range "1" "9")) ((_ re.loop 2 2) (re.range "0" "9")))) (re.opt (str.to_re " ")) (re.union (re.++ ((_ re.loop 3 3) (re.range "0" "9")) (re.opt (str.to_re " ")) ((_ re.loop 3 3) (re.range "0" "9"))) (re.++ ((_ re.loop 2 2) (re.range "0" "9")) (re.opt (str.to_re " ")) ((_ re.loop 2 2) (re.range "0" "9")) (re.opt (str.to_re " ")) ((_ re.loop 2 2) (re.range "0" "9")))) (str.to_re "\u{0a}"))))
; /^\/[a-z]{5}\.php\?id=0\d{5}111D30[a-zA-Z0-9]{6}$/Ui
(assert (not (str.in_re X (re.++ (str.to_re "//") ((_ re.loop 5 5) (re.range "a" "z")) (str.to_re ".php?id=0") ((_ re.loop 5 5) (re.range "0" "9")) (str.to_re "111D30") ((_ re.loop 6 6) (re.union (re.range "a" "z") (re.range "A" "Z") (re.range "0" "9"))) (str.to_re "/Ui\u{0a}")))))
; /filename=[^\n]*\u{2e}search-ms/i
(assert (not (str.in_re X (re.++ (str.to_re "/filename=") (re.* (re.comp (str.to_re "\u{0a}"))) (str.to_re ".search-ms/i\u{0a}")))))
; \x7D\x7BTrojan\x3A\w+by\d+to\w+dddlogin\x2Edudu\x2EcomSurveillanceIPOblivion
(assert (not (str.in_re X (re.++ (str.to_re "}{Trojan:") (re.+ (re.union (re.range "0" "9") (re.range "A" "Z") (re.range "a" "z") (str.to_re "_"))) (str.to_re "by") (re.+ (re.range "0" "9")) (str.to_re "to") (re.+ (re.union (re.range "0" "9") (re.range "A" "Z") (re.range "a" "z") (str.to_re "_"))) (str.to_re "dddlogin.dudu.comSurveillance\u{13}IPOblivion\u{0a}")))))
(assert (> (str.len X) 10))
(check-sat)
